peakDumbCharging = 11100; 
Machine = anon_enum(16); 
machineSpeed = [3700,3700,3700,3700,3700,3700,3700,3700,3700,3700,3700,3700,3700,3700,3700,3700]; 
machineLoad = [3700,3700,3700,3700,3700,3700,3700,3700,3700,3700,3700,3700,3700,3700,3700,3700]; 
Car = anon_enum(8); 
demandCar = [29400,7280,18400,10000,39960,3400,35080,31520]; 
arrivalCar = [72,71,67,60,51,48,36,34]; 
departureCar = [83,75,74,64,63,51,57,69]; 
